Welcome to the CBC MILP Solver 
Version: 2.10.7 
Build Date: Feb 14 2022 

command line - cbc inputs/new_no_tr/order/triang7_3_default_input.lp sec 1800 solve solu solutions/new_no_tr/triang7_3_default_input.lp (default strategy 1)
seconds was changed from 1e+100 to 1800
Continuous objective value is 253.106 - 0.17 seconds
Cgl0002I 115 variables fixed
Cgl0003I 0 fixed, 13 tightened bounds, 609 strengthened rows, 0 substitutions
Cgl0003I 0 fixed, 15 tightened bounds, 224 strengthened rows, 0 substitutions
Cgl0003I 0 fixed, 12 tightened bounds, 109 strengthened rows, 0 substitutions
Cgl0003I 0 fixed, 7 tightened bounds, 36 strengthened rows, 0 substitutions
Cgl0003I 0 fixed, 7 tightened bounds, 13 strengthened rows, 0 substitutions
Cgl0003I 0 fixed, 3 tightened bounds, 13 strengthened rows, 0 substitutions
Cgl0003I 0 fixed, 1 tightened bounds, 4 strengthened rows, 0 substitutions
Cgl0004I processed model has 2708 rows, 939 columns (939 integer (910 of which binary)) and 9168 elements
Cutoff increment increased from 1e-05 to 0.9999
Cbc0045I 1 integer variables out of 939 objects (939 integer) have cost of 1 - high priority
Cbc0045I branch on satisfied Y create fake objective Y random cost Y
Cbc0038I Initial state - 470 integers unsatisfied sum - 148.68
Cbc0038I Pass   1: suminf.   90.84330 (463) obj. 334.354 iterations 1071
Cbc0038I Pass   2: suminf.   82.26720 (469) obj. 393.941 iterations 386
Cbc0038I Pass   3: suminf.   79.94143 (476) obj. 404.083 iterations 152
Cbc0038I Pass   4: suminf.   79.34998 (476) obj. 403.497 iterations 119
Cbc0038I Pass   5: suminf.   78.04537 (476) obj. 411.186 iterations 75
Cbc0038I Pass   6: suminf.   78.49168 (468) obj. 412.638 iterations 110
Cbc0038I Pass   7: suminf.   77.09771 (456) obj. 411.476 iterations 87
Cbc0038I Pass   8: suminf.   82.09755 (492) obj. 413.883 iterations 184
Cbc0038I Pass   9: suminf.   76.61753 (481) obj. 413.925 iterations 85
Cbc0038I Pass  10: suminf.   74.34436 (497) obj. 416.695 iterations 148
Cbc0038I Pass  11: suminf.   71.31726 (501) obj. 413.567 iterations 269
Cbc0038I Pass  12: suminf.   70.84955 (513) obj. 424.484 iterations 125
Cbc0038I Pass  13: suminf.   71.39802 (515) obj. 424.609 iterations 97
Cbc0038I Pass  14: suminf.   64.71723 (523) obj. 420.987 iterations 65
Cbc0038I Pass  15: suminf.   55.31640 (507) obj. 434.562 iterations 160
Cbc0038I Pass  16: suminf.   59.58779 (549) obj. 426.29 iterations 187
Cbc0038I Pass  17: suminf.   59.72863 (544) obj. 425.706 iterations 157
Cbc0038I Pass  18: suminf.   61.16355 (547) obj. 431.367 iterations 22
Cbc0038I Pass  19: suminf.   61.06699 (555) obj. 444.809 iterations 425
Cbc0038I Pass  20: suminf.   60.15416 (547) obj. 458.13 iterations 160
Cbc0038I Pass  21: suminf.   58.94144 (557) obj. 428.297 iterations 344
Cbc0038I Pass  22: suminf.   58.25765 (555) obj. 427.726 iterations 74
Cbc0038I Pass  23: suminf.   60.44850 (535) obj. 428.441 iterations 306
Cbc0038I Pass  24: suminf.   58.00527 (547) obj. 427.623 iterations 234
Cbc0038I Pass  25: suminf.   57.69512 (547) obj. 427.686 iterations 10
Cbc0038I Pass  26: suminf.   58.58324 (552) obj. 427.987 iterations 261
Cbc0038I Pass  27: suminf.   57.69801 (556) obj. 427.808 iterations 160
Cbc0038I Pass  28: suminf.   57.58637 (555) obj. 427.071 iterations 257
Cbc0038I Pass  29: suminf.   57.31907 (558) obj. 426.195 iterations 86
Cbc0038I Pass  30: suminf.   58.43998 (557) obj. 426.194 iterations 265
Cbc0038I Pass  31: suminf.   57.65024 (557) obj. 426.536 iterations 137
Cbc0038I Pass  32: suminf.   57.04505 (554) obj. 426.182 iterations 140
Cbc0038I Pass  33: suminf.   59.63253 (527) obj. 427.302 iterations 320
Cbc0038I Pass  34: suminf.   57.77475 (530) obj. 427.632 iterations 146
Cbc0038I Pass  35: suminf.   57.22273 (537) obj. 428.138 iterations 62
Cbc0038I Pass  36: suminf.   60.38555 (560) obj. 428.281 iterations 304
Cbc0038I Pass  37: suminf.   58.40000 (555) obj. 428.281 iterations 139
Cbc0038I Pass  38: suminf.   57.97571 (557) obj. 428.281 iterations 92
Cbc0038I Pass  39: suminf.   58.16369 (538) obj. 427.194 iterations 262
Cbc0038I Pass  40: suminf.   57.12418 (556) obj. 427.142 iterations 137
Cbc0038I Pass  41: suminf.   57.12995 (556) obj. 427.449 iterations 68
Cbc0038I Pass  42: suminf.   59.27200 (567) obj. 426.856 iterations 244
Cbc0038I Pass  43: suminf.   57.56668 (575) obj. 426.606 iterations 140
Cbc0038I Pass  44: suminf.   57.49180 (580) obj. 426.488 iterations 50
Cbc0038I Pass  45: suminf.   57.70034 (548) obj. 427.194 iterations 229
Cbc0038I Pass  46: suminf.   56.85298 (549) obj. 427.194 iterations 136
Cbc0038I Pass  47: suminf.   56.55135 (560) obj. 428.019 iterations 95
Cbc0038I Pass  48: suminf.   58.76462 (559) obj. 426.194 iterations 246
Cbc0038I Pass  49: suminf.   57.45783 (552) obj. 425.923 iterations 114
Cbc0038I Pass  50: suminf.   56.80777 (553) obj. 426.213 iterations 80
Cbc0038I Pass  51: suminf.   57.82311 (566) obj. 427.194 iterations 270
Cbc0038I Pass  52: suminf.   57.18945 (574) obj. 427.644 iterations 171
Cbc0038I Pass  53: suminf.   57.43509 (557) obj. 435.698 iterations 212
Cbc0038I Pass  54: suminf.   56.56030 (563) obj. 437.241 iterations 145
Cbc0038I Pass  55: suminf.   57.09590 (585) obj. 426.552 iterations 180
Cbc0038I Pass  56: suminf.   57.15169 (583) obj. 426.477 iterations 121
Cbc0038I Pass  57: suminf.   57.43509 (557) obj. 435.698 iterations 185
Cbc0038I Pass  58: suminf.   97.63656 (518) obj. 575.546 iterations 925
Cbc0038I Pass  59: suminf.   66.48112 (536) obj. 523.108 iterations 568
Cbc0038I Pass  60: suminf.   61.65028 (543) obj. 527.785 iterations 181
Cbc0038I Pass  61: suminf.   61.63361 (543) obj. 527.785 iterations 10
Cbc0038I Pass  62: suminf.   58.75071 (518) obj. 528.017 iterations 206
Cbc0038I Pass  63: suminf.   57.82389 (515) obj. 528.007 iterations 110
Cbc0038I Pass  64: suminf.   57.83008 (533) obj. 527.746 iterations 62
Cbc0038I Pass  65: suminf.   57.80716 (529) obj. 527.746 iterations 252
Cbc0038I Pass  66: suminf.   56.90334 (539) obj. 527.746 iterations 125
Cbc0038I Pass  67: suminf.   57.13171 (562) obj. 527.746 iterations 189
Cbc0038I Pass  68: suminf.   56.36101 (557) obj. 527.746 iterations 126
Cbc0038I Pass  69: suminf.   56.25839 (561) obj. 539.741 iterations 58
Cbc0038I Pass  70: suminf.   54.74979 (548) obj. 526.549 iterations 208
Cbc0038I Pass  71: suminf.   56.12977 (549) obj. 540.241 iterations 158
Cbc0038I Pass  72: suminf.   53.39587 (576) obj. 542.756 iterations 173
Cbc0038I Pass  73: suminf.   56.37327 (552) obj. 539.403 iterations 201
Cbc0038I Pass  74: suminf.   54.57834 (572) obj. 526.931 iterations 295
Cbc0038I Pass  75: suminf.   56.29459 (537) obj. 527.744 iterations 186
Cbc0038I Pass  76: suminf.   53.14546 (582) obj. 544.318 iterations 227
Cbc0038I Pass  77: suminf.   94.82585 (523) obj. 603.306 iterations 933
Cbc0038I Pass  78: suminf.   67.70218 (514) obj. 621.768 iterations 542
Cbc0038I Pass  79: suminf.   63.60325 (536) obj. 633.233 iterations 149
Cbc0038I Pass  80: suminf.   62.85814 (547) obj. 635.459 iterations 84
Cbc0038I Pass  81: suminf.   62.00372 (524) obj. 635.082 iterations 162
Cbc0038I Pass  82: suminf.   61.48555 (542) obj. 639.089 iterations 80
Cbc0038I Pass  83: suminf.   61.94969 (536) obj. 635.526 iterations 146
Cbc0038I Pass  84: suminf.   61.18230 (544) obj. 636.9 iterations 93
Cbc0038I Pass  85: suminf.   62.49014 (536) obj. 639.476 iterations 238
Cbc0038I Pass  86: suminf.   60.58050 (542) obj. 639.573 iterations 138
Cbc0038I Pass  87: suminf.   61.82395 (530) obj. 638.578 iterations 279
Cbc0038I Pass  88: suminf.   59.98960 (532) obj. 637.334 iterations 149
Cbc0038I Pass  89: suminf.   62.89203 (538) obj. 638.585 iterations 217
Cbc0038I Pass  90: suminf.   60.20736 (523) obj. 638.028 iterations 121
Cbc0038I Pass  91: suminf.   60.26621 (531) obj. 638.324 iterations 34
Cbc0038I Pass  92: suminf.   60.07866 (528) obj. 638.606 iterations 68
Cbc0038I Pass  93: suminf.   61.28372 (536) obj. 637.488 iterations 151
Cbc0038I Pass  94: suminf.   60.20506 (550) obj. 637.709 iterations 106
Cbc0038I Pass  95: suminf.   61.28144 (532) obj. 638.471 iterations 166
Cbc0038I Pass  96: suminf.   59.87140 (556) obj. 638.773 iterations 164
Cbc0038I Pass  97: suminf.   60.53634 (540) obj. 637.828 iterations 217
Cbc0038I Pass  98: suminf.   60.43532 (545) obj. 637.603 iterations 109
Cbc0038I Pass  99: suminf.   60.71192 (543) obj. 638.577 iterations 140
Cbc0038I Pass 100: suminf.  109.56041 (531) obj. 813.224 iterations 671
Cbc0038I No solution found this major pass
Cbc0038I Before mini branch and bound, 37 integers at bound fixed and 0 continuous
Cbc0038I Full problem 2708 rows 939 columns, reduced to 2634 rows 902 columns - too large
Cbc0038I Mini branch and bound did not improve solution (3.28 seconds)
Cbc0038I After 3.28 seconds - Feasibility pump exiting - took 2.62 seconds
Cbc0031I 50 added rows had average density of 15.14
Cbc0013I At root node, 50 cuts changed objective from 253.10638 to 275 in 10 passes
Cbc0014I Cut generator 0 (Probing) - 1 row cuts average 5.0 elements, 0 column cuts (0 active)  in 0.051 seconds - new frequency is -100
Cbc0014I Cut generator 1 (Gomory) - 207 row cuts average 554.5 elements, 0 column cuts (0 active)  in 0.295 seconds - new frequency is 1
Cbc0014I Cut generator 2 (Knapsack) - 0 row cuts average 0.0 elements, 0 column cuts (0 active)  in 0.011 seconds - new frequency is -100
Cbc0014I Cut generator 3 (Clique) - 0 row cuts average 0.0 elements, 0 column cuts (0 active)  in 0.009 seconds - new frequency is -100
Cbc0014I Cut generator 4 (MixedIntegerRounding2) - 0 row cuts average 0.0 elements, 0 column cuts (0 active)  in 0.012 seconds - new frequency is -100
Cbc0014I Cut generator 5 (FlowCover) - 0 row cuts average 0.0 elements, 0 column cuts (0 active)  in 0.008 seconds - new frequency is -100
Cbc0014I Cut generator 6 (TwoMirCuts) - 138 row cuts average 16.9 elements, 0 column cuts (0 active)  in 0.095 seconds - new frequency is 1
Cbc0014I Cut generator 7 (ZeroHalf) - 50 row cuts average 30.9 elements, 0 column cuts (0 active)  in 0.192 seconds - new frequency is 1
Cbc0010I After 0 nodes, 1 on tree, 1e+50 best solution, best possible 275 (7.06 seconds)
Cbc0010I After 100 nodes, 4 on tree, 1e+50 best solution, best possible 281 (63.39 seconds)
Cbc0010I After 200 nodes, 5 on tree, 1e+50 best solution, best possible 283 (94.36 seconds)
Cbc0010I After 300 nodes, 17 on tree, 1e+50 best solution, best possible 283 (125.60 seconds)
Cbc0010I After 400 nodes, 44 on tree, 1e+50 best solution, best possible 283 (152.82 seconds)
Cbc0010I After 500 nodes, 47 on tree, 1e+50 best solution, best possible 283 (167.99 seconds)
Cbc0010I After 600 nodes, 45 on tree, 1e+50 best solution, best possible 283 (181.42 seconds)
Cbc0010I After 700 nodes, 52 on tree, 1e+50 best solution, best possible 283 (192.79 seconds)
Cbc0010I After 800 nodes, 47 on tree, 1e+50 best solution, best possible 283 (199.23 seconds)
Cbc0010I After 900 nodes, 48 on tree, 1e+50 best solution, best possible 283 (203.52 seconds)
Cbc0010I After 1000 nodes, 46 on tree, 1e+50 best solution, best possible 283 (205.76 seconds)
Cbc0010I After 1100 nodes, 53 on tree, 1e+50 best solution, best possible 285 (212.85 seconds)
Cbc0010I After 1200 nodes, 45 on tree, 1e+50 best solution, best possible 285 (217.92 seconds)
Cbc0010I After 1300 nodes, 55 on tree, 1e+50 best solution, best possible 285 (222.61 seconds)
Cbc0010I After 1400 nodes, 50 on tree, 1e+50 best solution, best possible 285 (226.10 seconds)
Cbc0010I After 1500 nodes, 44 on tree, 1e+50 best solution, best possible 285 (229.16 seconds)
Cbc0010I After 1600 nodes, 48 on tree, 1e+50 best solution, best possible 285 (233.30 seconds)
Cbc0010I After 1700 nodes, 51 on tree, 1e+50 best solution, best possible 285 (236.57 seconds)
Cbc0010I After 1800 nodes, 44 on tree, 1e+50 best solution, best possible 285 (239.47 seconds)
Cbc0010I After 1900 nodes, 40 on tree, 1e+50 best solution, best possible 285 (242.69 seconds)
Cbc0010I After 2000 nodes, 46 on tree, 1e+50 best solution, best possible 285 (246.49 seconds)
Cbc0010I After 2100 nodes, 56 on tree, 1e+50 best solution, best possible 285 (249.43 seconds)
Cbc0010I After 2200 nodes, 49 on tree, 1e+50 best solution, best possible 285 (251.76 seconds)
Cbc0010I After 2300 nodes, 52 on tree, 1e+50 best solution, best possible 285 (253.50 seconds)
Cbc0010I After 2400 nodes, 51 on tree, 1e+50 best solution, best possible 285 (254.78 seconds)
Cbc0010I After 2500 nodes, 49 on tree, 1e+50 best solution, best possible 285 (256.56 seconds)
Cbc0010I After 2600 nodes, 46 on tree, 1e+50 best solution, best possible 285 (258.52 seconds)
Cbc0010I After 2700 nodes, 45 on tree, 1e+50 best solution, best possible 285 (260.73 seconds)
Cbc0010I After 2800 nodes, 42 on tree, 1e+50 best solution, best possible 285 (263.61 seconds)
Cbc0010I After 2900 nodes, 48 on tree, 1e+50 best solution, best possible 285 (267.09 seconds)
Cbc0010I After 3000 nodes, 44 on tree, 1e+50 best solution, best possible 285 (269.45 seconds)
Cbc0010I After 3100 nodes, 51 on tree, 1e+50 best solution, best possible 285 (272.37 seconds)
Cbc0010I After 3200 nodes, 48 on tree, 1e+50 best solution, best possible 285 (274.22 seconds)
Cbc0010I After 3300 nodes, 39 on tree, 1e+50 best solution, best possible 285 (289.70 seconds)
Cbc0010I After 3400 nodes, 53 on tree, 1e+50 best solution, best possible 285 (292.88 seconds)
Cbc0010I After 3500 nodes, 47 on tree, 1e+50 best solution, best possible 285 (294.86 seconds)
Cbc0010I After 3600 nodes, 45 on tree, 1e+50 best solution, best possible 285 (296.53 seconds)
Cbc0010I After 3700 nodes, 48 on tree, 1e+50 best solution, best possible 285 (298.43 seconds)
Cbc0010I After 3800 nodes, 51 on tree, 1e+50 best solution, best possible 285 (300.69 seconds)
Cbc0010I After 3900 nodes, 50 on tree, 1e+50 best solution, best possible 285 (303.69 seconds)
Cbc0010I After 4000 nodes, 49 on tree, 1e+50 best solution, best possible 285 (306.15 seconds)
Cbc0010I After 4100 nodes, 55 on tree, 1e+50 best solution, best possible 285 (309.02 seconds)
Cbc0010I After 4200 nodes, 61 on tree, 1e+50 best solution, best possible 285 (310.46 seconds)
Cbc0010I After 4300 nodes, 62 on tree, 1e+50 best solution, best possible 285 (312.27 seconds)
Cbc0010I After 4400 nodes, 59 on tree, 1e+50 best solution, best possible 285 (314.38 seconds)
Cbc0010I After 4500 nodes, 55 on tree, 1e+50 best solution, best possible 285 (316.10 seconds)
Cbc0010I After 4600 nodes, 51 on tree, 1e+50 best solution, best possible 285 (318.61 seconds)
Cbc0010I After 4700 nodes, 50 on tree, 1e+50 best solution, best possible 285 (320.85 seconds)
Cbc0010I After 4800 nodes, 52 on tree, 1e+50 best solution, best possible 285 (322.29 seconds)
Cbc0010I After 4900 nodes, 49 on tree, 1e+50 best solution, best possible 285 (324.69 seconds)
Cbc0010I After 5000 nodes, 49 on tree, 1e+50 best solution, best possible 285 (327.31 seconds)
Cbc0010I After 5100 nodes, 45 on tree, 1e+50 best solution, best possible 292 (333.62 seconds)
Cbc0010I After 5200 nodes, 53 on tree, 1e+50 best solution, best possible 292 (335.93 seconds)
Cbc0010I After 5300 nodes, 47 on tree, 1e+50 best solution, best possible 292 (339.13 seconds)
Cbc0010I After 5400 nodes, 48 on tree, 1e+50 best solution, best possible 292 (341.30 seconds)
Cbc0010I After 5500 nodes, 51 on tree, 1e+50 best solution, best possible 292 (344.03 seconds)
Cbc0010I After 5600 nodes, 46 on tree, 1e+50 best solution, best possible 292 (346.01 seconds)
Cbc0010I After 5700 nodes, 50 on tree, 1e+50 best solution, best possible 292 (348.99 seconds)
Cbc0010I After 5800 nodes, 47 on tree, 1e+50 best solution, best possible 292 (351.18 seconds)
Cbc0010I After 5900 nodes, 47 on tree, 1e+50 best solution, best possible 292 (353.61 seconds)
Cbc0010I After 6000 nodes, 48 on tree, 1e+50 best solution, best possible 292 (356.48 seconds)
Cbc0010I After 6100 nodes, 49 on tree, 1e+50 best solution, best possible 292 (359.48 seconds)
Cbc0010I After 6200 nodes, 48 on tree, 1e+50 best solution, best possible 292 (363.00 seconds)
Cbc0010I After 6300 nodes, 46 on tree, 1e+50 best solution, best possible 292 (365.59 seconds)
Cbc0010I After 6400 nodes, 50 on tree, 1e+50 best solution, best possible 292 (367.96 seconds)
Cbc0010I After 6500 nodes, 42 on tree, 1e+50 best solution, best possible 292 (370.14 seconds)
Cbc0010I After 6600 nodes, 44 on tree, 1e+50 best solution, best possible 292 (372.28 seconds)
Cbc0010I After 6700 nodes, 46 on tree, 1e+50 best solution, best possible 292 (374.47 seconds)
Cbc0010I After 6800 nodes, 45 on tree, 1e+50 best solution, best possible 292 (377.72 seconds)
Cbc0010I After 6900 nodes, 46 on tree, 1e+50 best solution, best possible 292 (380.85 seconds)
Cbc0010I After 7000 nodes, 42 on tree, 1e+50 best solution, best possible 292 (382.97 seconds)
Cbc0010I After 7100 nodes, 44 on tree, 1e+50 best solution, best possible 292 (384.97 seconds)
Cbc0010I After 7200 nodes, 43 on tree, 1e+50 best solution, best possible 292 (388.36 seconds)
Cbc0010I After 7300 nodes, 42 on tree, 1e+50 best solution, best possible 292 (392.88 seconds)
Cbc0010I After 7400 nodes, 48 on tree, 1e+50 best solution, best possible 292 (394.84 seconds)
Cbc0010I After 7500 nodes, 43 on tree, 1e+50 best solution, best possible 292 (397.52 seconds)
Cbc0010I After 7600 nodes, 38 on tree, 1e+50 best solution, best possible 292 (401.50 seconds)
Cbc0010I After 7700 nodes, 63 on tree, 1e+50 best solution, best possible 292 (413.33 seconds)
Cbc0010I After 7800 nodes, 59 on tree, 1e+50 best solution, best possible 292 (417.20 seconds)
Cbc0010I After 7900 nodes, 65 on tree, 1e+50 best solution, best possible 292 (420.13 seconds)
Cbc0010I After 8000 nodes, 55 on tree, 1e+50 best solution, best possible 292 (423.50 seconds)
Cbc0010I After 8100 nodes, 61 on tree, 1e+50 best solution, best possible 292 (426.28 seconds)
Cbc0010I After 8200 nodes, 70 on tree, 1e+50 best solution, best possible 292 (429.72 seconds)
Cbc0010I After 8300 nodes, 69 on tree, 1e+50 best solution, best possible 292 (432.39 seconds)
Cbc0010I After 8400 nodes, 64 on tree, 1e+50 best solution, best possible 292 (435.41 seconds)
Cbc0010I After 8500 nodes, 67 on tree, 1e+50 best solution, best possible 292 (437.91 seconds)
Cbc0010I After 8600 nodes, 65 on tree, 1e+50 best solution, best possible 292 (441.00 seconds)
Cbc0010I After 8700 nodes, 61 on tree, 1e+50 best solution, best possible 292 (444.26 seconds)
Cbc0010I After 8800 nodes, 58 on tree, 1e+50 best solution, best possible 292 (448.40 seconds)
Cbc0010I After 8900 nodes, 59 on tree, 1e+50 best solution, best possible 292 (453.43 seconds)
Cbc0010I After 9000 nodes, 67 on tree, 1e+50 best solution, best possible 292 (457.07 seconds)
Cbc0010I After 9100 nodes, 61 on tree, 1e+50 best solution, best possible 294 (462.40 seconds)
Cbc0010I After 9200 nodes, 60 on tree, 1e+50 best solution, best possible 294 (465.87 seconds)
Cbc0010I After 9300 nodes, 61 on tree, 1e+50 best solution, best possible 294 (468.56 seconds)
Cbc0010I After 9400 nodes, 61 on tree, 1e+50 best solution, best possible 294 (472.75 seconds)
Cbc0010I After 9500 nodes, 58 on tree, 1e+50 best solution, best possible 294 (475.12 seconds)
Cbc0010I After 9600 nodes, 60 on tree, 1e+50 best solution, best possible 294 (478.75 seconds)
Cbc0010I After 9700 nodes, 53 on tree, 1e+50 best solution, best possible 294 (482.37 seconds)
Cbc0010I After 9800 nodes, 55 on tree, 1e+50 best solution, best possible 294 (486.20 seconds)
Cbc0010I After 9900 nodes, 60 on tree, 1e+50 best solution, best possible 294 (488.99 seconds)
Cbc0010I After 10000 nodes, 58 on tree, 1e+50 best solution, best possible 294 (491.88 seconds)
Cbc0010I After 10100 nodes, 62 on tree, 1e+50 best solution, best possible 294 (495.13 seconds)
Cbc0010I After 10200 nodes, 56 on tree, 1e+50 best solution, best possible 294 (497.71 seconds)
Cbc0010I After 10300 nodes, 67 on tree, 1e+50 best solution, best possible 294 (501.14 seconds)
Cbc0010I After 10400 nodes, 66 on tree, 1e+50 best solution, best possible 294 (503.24 seconds)
Cbc0010I After 10500 nodes, 51 on tree, 1e+50 best solution, best possible 294 (505.95 seconds)
Cbc0010I After 10600 nodes, 56 on tree, 1e+50 best solution, best possible 294 (509.46 seconds)
Cbc0010I After 10700 nodes, 62 on tree, 1e+50 best solution, best possible 294 (512.91 seconds)
Cbc0010I After 10800 nodes, 63 on tree, 1e+50 best solution, best possible 294 (517.14 seconds)
Cbc0010I After 10900 nodes, 53 on tree, 1e+50 best solution, best possible 294 (519.01 seconds)
Cbc0010I After 11000 nodes, 58 on tree, 1e+50 best solution, best possible 294 (522.33 seconds)
Cbc0010I After 11100 nodes, 66 on tree, 1e+50 best solution, best possible 296 (539.61 seconds)
Cbc0010I After 11200 nodes, 62 on tree, 1e+50 best solution, best possible 296 (546.18 seconds)
Cbc0010I After 11300 nodes, 66 on tree, 1e+50 best solution, best possible 296 (551.50 seconds)
Cbc0010I After 11400 nodes, 67 on tree, 1e+50 best solution, best possible 297 (563.83 seconds)
Cbc0010I After 11500 nodes, 69 on tree, 1e+50 best solution, best possible 297 (569.32 seconds)
Cbc0010I After 11600 nodes, 68 on tree, 1e+50 best solution, best possible 297 (575.81 seconds)
Cbc0010I After 11700 nodes, 68 on tree, 1e+50 best solution, best possible 297 (582.97 seconds)
Cbc0010I After 11800 nodes, 67 on tree, 1e+50 best solution, best possible 297 (588.97 seconds)
Cbc0010I After 11900 nodes, 64 on tree, 1e+50 best solution, best possible 297 (597.26 seconds)
Cbc0010I After 12000 nodes, 58 on tree, 1e+50 best solution, best possible 298 (608.76 seconds)
Cbc0010I After 12100 nodes, 61 on tree, 1e+50 best solution, best possible 298 (615.42 seconds)
Cbc0010I After 12200 nodes, 60 on tree, 1e+50 best solution, best possible 298 (621.78 seconds)
Cbc0010I After 12300 nodes, 57 on tree, 1e+50 best solution, best possible 298 (631.26 seconds)
Cbc0010I After 12400 nodes, 59 on tree, 1e+50 best solution, best possible 298 (637.24 seconds)
Cbc0010I After 12500 nodes, 53 on tree, 1e+50 best solution, best possible 299 (647.29 seconds)
Cbc0010I After 12600 nodes, 64 on tree, 1e+50 best solution, best possible 299 (653.35 seconds)
Cbc0010I After 12700 nodes, 64 on tree, 1e+50 best solution, best possible 299 (659.99 seconds)
Cbc0010I After 12800 nodes, 64 on tree, 1e+50 best solution, best possible 299 (665.89 seconds)
Cbc0010I After 12900 nodes, 62 on tree, 1e+50 best solution, best possible 299 (672.89 seconds)
Cbc0010I After 13000 nodes, 57 on tree, 1e+50 best solution, best possible 299 (680.54 seconds)
Cbc0010I After 13100 nodes, 58 on tree, 1e+50 best solution, best possible 299 (685.58 seconds)
Cbc0010I After 13200 nodes, 47 on tree, 1e+50 best solution, best possible 299 (688.76 seconds)
Cbc0010I After 13300 nodes, 50 on tree, 1e+50 best solution, best possible 299 (691.36 seconds)
Cbc0010I After 13400 nodes, 55 on tree, 1e+50 best solution, best possible 299 (693.61 seconds)
Cbc0010I After 13500 nodes, 46 on tree, 1e+50 best solution, best possible 299 (697.18 seconds)
Cbc0010I After 13600 nodes, 49 on tree, 1e+50 best solution, best possible 299 (700.90 seconds)
Cbc0010I After 13700 nodes, 52 on tree, 1e+50 best solution, best possible 299 (703.97 seconds)
Cbc0010I After 13800 nodes, 60 on tree, 1e+50 best solution, best possible 299 (706.71 seconds)
Cbc0010I After 13900 nodes, 49 on tree, 1e+50 best solution, best possible 299 (709.75 seconds)
Cbc0010I After 14000 nodes, 46 on tree, 1e+50 best solution, best possible 299 (713.36 seconds)
Cbc0010I After 14100 nodes, 44 on tree, 1e+50 best solution, best possible 299 (716.37 seconds)
Cbc0010I After 14200 nodes, 39 on tree, 1e+50 best solution, best possible 299 (720.76 seconds)
Cbc0010I After 14300 nodes, 50 on tree, 1e+50 best solution, best possible 299 (724.47 seconds)
Cbc0010I After 14400 nodes, 48 on tree, 1e+50 best solution, best possible 299 (728.61 seconds)
Cbc0010I After 14500 nodes, 41 on tree, 1e+50 best solution, best possible 299 (733.97 seconds)
Cbc0010I After 14600 nodes, 60 on tree, 1e+50 best solution, best possible 299 (738.31 seconds)
Cbc0010I After 14700 nodes, 52 on tree, 1e+50 best solution, best possible 299 (742.65 seconds)
Cbc0010I After 14800 nodes, 52 on tree, 1e+50 best solution, best possible 299 (746.52 seconds)
Cbc0010I After 14900 nodes, 53 on tree, 1e+50 best solution, best possible 299 (751.45 seconds)
Cbc0010I After 15000 nodes, 52 on tree, 1e+50 best solution, best possible 299 (755.77 seconds)
Cbc0010I After 15100 nodes, 54 on tree, 1e+50 best solution, best possible 299 (759.72 seconds)
Cbc0010I After 15200 nodes, 54 on tree, 1e+50 best solution, best possible 299 (764.52 seconds)
Cbc0010I After 15300 nodes, 50 on tree, 1e+50 best solution, best possible 299 (769.52 seconds)
Cbc0010I After 15400 nodes, 45 on tree, 1e+50 best solution, best possible 299 (774.11 seconds)
Cbc0010I After 15500 nodes, 51 on tree, 1e+50 best solution, best possible 299 (778.65 seconds)
Cbc0010I After 15600 nodes, 52 on tree, 1e+50 best solution, best possible 299 (783.99 seconds)
Cbc0010I After 15700 nodes, 49 on tree, 1e+50 best solution, best possible 299 (788.70 seconds)
Cbc0010I After 15800 nodes, 51 on tree, 1e+50 best solution, best possible 299 (792.79 seconds)
Cbc0010I After 15900 nodes, 47 on tree, 1e+50 best solution, best possible 299 (797.30 seconds)
Cbc0010I After 16000 nodes, 50 on tree, 1e+50 best solution, best possible 299 (801.66 seconds)
Cbc0010I After 16100 nodes, 49 on tree, 1e+50 best solution, best possible 299 (807.14 seconds)
Cbc0010I After 16200 nodes, 43 on tree, 1e+50 best solution, best possible 299 (811.98 seconds)
Cbc0010I After 16300 nodes, 53 on tree, 1e+50 best solution, best possible 299 (817.08 seconds)
Cbc0010I After 16400 nodes, 52 on tree, 1e+50 best solution, best possible 299 (821.58 seconds)
Cbc0010I After 16500 nodes, 48 on tree, 1e+50 best solution, best possible 299 (826.59 seconds)
Cbc0010I After 16600 nodes, 41 on tree, 1e+50 best solution, best possible 299 (831.68 seconds)
Cbc0010I After 16700 nodes, 44 on tree, 1e+50 best solution, best possible 299 (837.49 seconds)
Cbc0010I After 16800 nodes, 44 on tree, 1e+50 best solution, best possible 299 (842.87 seconds)
Cbc0010I After 16900 nodes, 31 on tree, 1e+50 best solution, best possible 299 (850.40 seconds)
Cbc0010I After 17000 nodes, 56 on tree, 1e+50 best solution, best possible 299 (855.86 seconds)
Cbc0010I After 17100 nodes, 65 on tree, 1e+50 best solution, best possible 299 (862.79 seconds)
Cbc0010I After 17200 nodes, 53 on tree, 1e+50 best solution, best possible 299 (870.82 seconds)
Cbc0010I After 17300 nodes, 53 on tree, 1e+50 best solution, best possible 299 (877.04 seconds)
Cbc0010I After 17400 nodes, 43 on tree, 1e+50 best solution, best possible 299 (883.64 seconds)
Cbc0010I After 17500 nodes, 41 on tree, 1e+50 best solution, best possible 299 (889.87 seconds)
Cbc0010I After 17600 nodes, 50 on tree, 1e+50 best solution, best possible 299 (894.78 seconds)
Cbc0010I After 17700 nodes, 50 on tree, 1e+50 best solution, best possible 299 (899.60 seconds)
Cbc0010I After 17800 nodes, 43 on tree, 1e+50 best solution, best possible 299 (904.63 seconds)
Cbc0010I After 17900 nodes, 42 on tree, 1e+50 best solution, best possible 299 (911.71 seconds)
Cbc0010I After 18000 nodes, 50 on tree, 1e+50 best solution, best possible 299 (919.14 seconds)
Cbc0010I After 18100 nodes, 50 on tree, 1e+50 best solution, best possible 299 (925.79 seconds)
Cbc0010I After 18200 nodes, 44 on tree, 1e+50 best solution, best possible 299 (934.04 seconds)
Cbc0010I After 18300 nodes, 47 on tree, 1e+50 best solution, best possible 299 (941.07 seconds)
Cbc0010I After 18400 nodes, 41 on tree, 1e+50 best solution, best possible 299 (949.80 seconds)
Cbc0010I After 18500 nodes, 49 on tree, 1e+50 best solution, best possible 299 (956.22 seconds)
Cbc0010I After 18600 nodes, 42 on tree, 1e+50 best solution, best possible 299 (960.16 seconds)
Cbc0010I After 18700 nodes, 44 on tree, 1e+50 best solution, best possible 299 (967.74 seconds)
Cbc0010I After 18800 nodes, 47 on tree, 1e+50 best solution, best possible 299 (974.51 seconds)
Cbc0010I After 18900 nodes, 52 on tree, 1e+50 best solution, best possible 299 (983.40 seconds)
Cbc0010I After 19000 nodes, 46 on tree, 1e+50 best solution, best possible 299 (993.38 seconds)
Cbc0010I After 19100 nodes, 53 on tree, 1e+50 best solution, best possible 299 (998.69 seconds)
Cbc0010I After 19200 nodes, 50 on tree, 1e+50 best solution, best possible 299 (1004.84 seconds)
Cbc0010I After 19300 nodes, 42 on tree, 1e+50 best solution, best possible 299 (1010.41 seconds)
Cbc0010I After 19400 nodes, 51 on tree, 1e+50 best solution, best possible 299 (1015.41 seconds)
Cbc0010I After 19500 nodes, 41 on tree, 1e+50 best solution, best possible 299 (1021.55 seconds)
Cbc0010I After 19600 nodes, 46 on tree, 1e+50 best solution, best possible 299 (1027.46 seconds)
Cbc0010I After 19700 nodes, 40 on tree, 1e+50 best solution, best possible 299 (1032.80 seconds)
Cbc0010I After 19800 nodes, 56 on tree, 1e+50 best solution, best possible 299 (1039.50 seconds)
Cbc0010I After 19900 nodes, 50 on tree, 1e+50 best solution, best possible 299 (1045.16 seconds)
Cbc0010I After 20000 nodes, 42 on tree, 1e+50 best solution, best possible 299 (1053.33 seconds)
Cbc0010I After 20100 nodes, 49 on tree, 1e+50 best solution, best possible 299 (1058.67 seconds)
Cbc0010I After 20200 nodes, 39 on tree, 1e+50 best solution, best possible 299 (1066.37 seconds)
Cbc0010I After 20300 nodes, 50 on tree, 1e+50 best solution, best possible 299 (1071.47 seconds)
Cbc0010I After 20400 nodes, 45 on tree, 1e+50 best solution, best possible 299 (1080.33 seconds)
Cbc0010I After 20500 nodes, 43 on tree, 1e+50 best solution, best possible 299 (1088.57 seconds)
Cbc0010I After 20600 nodes, 42 on tree, 1e+50 best solution, best possible 299 (1097.20 seconds)
Cbc0010I After 20700 nodes, 47 on tree, 1e+50 best solution, best possible 299 (1101.82 seconds)
Cbc0010I After 20800 nodes, 41 on tree, 1e+50 best solution, best possible 299 (1107.16 seconds)
Cbc0010I After 20900 nodes, 39 on tree, 1e+50 best solution, best possible 299 (1112.58 seconds)
Cbc0010I After 21000 nodes, 39 on tree, 1e+50 best solution, best possible 299 (1119.34 seconds)
Cbc0010I After 21100 nodes, 40 on tree, 1e+50 best solution, best possible 299 (1127.57 seconds)
Cbc0010I After 21200 nodes, 39 on tree, 1e+50 best solution, best possible 299 (1133.12 seconds)
Cbc0010I After 21300 nodes, 42 on tree, 1e+50 best solution, best possible 299 (1138.15 seconds)
Cbc0010I After 21400 nodes, 45 on tree, 1e+50 best solution, best possible 299 (1143.91 seconds)
Cbc0010I After 21500 nodes, 47 on tree, 1e+50 best solution, best possible 299 (1149.68 seconds)
Cbc0010I After 21600 nodes, 40 on tree, 1e+50 best solution, best possible 299 (1157.43 seconds)
Cbc0010I After 21700 nodes, 41 on tree, 1e+50 best solution, best possible 299 (1163.04 seconds)
Cbc0010I After 21800 nodes, 43 on tree, 1e+50 best solution, best possible 299 (1167.91 seconds)
Cbc0010I After 21900 nodes, 36 on tree, 1e+50 best solution, best possible 299 (1173.84 seconds)
Cbc0010I After 22000 nodes, 42 on tree, 1e+50 best solution, best possible 299 (1178.81 seconds)
Cbc0010I After 22100 nodes, 43 on tree, 1e+50 best solution, best possible 299 (1185.72 seconds)
Cbc0010I After 22200 nodes, 40 on tree, 1e+50 best solution, best possible 299 (1189.53 seconds)
Cbc0010I After 22300 nodes, 40 on tree, 1e+50 best solution, best possible 299 (1195.76 seconds)
Cbc0010I After 22400 nodes, 38 on tree, 1e+50 best solution, best possible 299 (1205.18 seconds)
Cbc0010I After 22500 nodes, 36 on tree, 1e+50 best solution, best possible 299 (1214.64 seconds)
Cbc0010I After 22600 nodes, 43 on tree, 1e+50 best solution, best possible 299 (1224.54 seconds)
Cbc0010I After 22700 nodes, 39 on tree, 1e+50 best solution, best possible 299 (1235.08 seconds)
Cbc0010I After 22800 nodes, 36 on tree, 1e+50 best solution, best possible 299 (1243.65 seconds)
Cbc0010I After 22900 nodes, 58 on tree, 1e+50 best solution, best possible 299 (1254.35 seconds)
Cbc0010I After 23000 nodes, 46 on tree, 1e+50 best solution, best possible 299 (1264.50 seconds)
Cbc0010I After 23100 nodes, 51 on tree, 1e+50 best solution, best possible 299 (1274.91 seconds)
Cbc0010I After 23200 nodes, 49 on tree, 1e+50 best solution, best possible 299 (1288.06 seconds)
Cbc0010I After 23300 nodes, 49 on tree, 1e+50 best solution, best possible 299 (1301.20 seconds)
Cbc0010I After 23400 nodes, 43 on tree, 1e+50 best solution, best possible 299 (1312.48 seconds)
Cbc0010I After 23500 nodes, 34 on tree, 1e+50 best solution, best possible 299 (1323.88 seconds)
Cbc0010I After 23600 nodes, 43 on tree, 1e+50 best solution, best possible 299 (1338.10 seconds)
Cbc0010I After 23700 nodes, 35 on tree, 1e+50 best solution, best possible 299 (1351.83 seconds)
Cbc0010I After 23800 nodes, 39 on tree, 1e+50 best solution, best possible 299 (1363.35 seconds)
Cbc0010I After 23900 nodes, 38 on tree, 1e+50 best solution, best possible 299 (1374.15 seconds)
Cbc0010I After 24000 nodes, 48 on tree, 1e+50 best solution, best possible 299 (1386.77 seconds)
Cbc0010I After 24100 nodes, 57 on tree, 1e+50 best solution, best possible 299 (1401.52 seconds)
Cbc0010I After 24200 nodes, 48 on tree, 1e+50 best solution, best possible 299 (1413.59 seconds)
Cbc0010I After 24300 nodes, 52 on tree, 1e+50 best solution, best possible 299 (1425.97 seconds)
Cbc0010I After 24400 nodes, 40 on tree, 1e+50 best solution, best possible 299 (1440.85 seconds)
Cbc0010I After 24500 nodes, 36 on tree, 1e+50 best solution, best possible 299 (1455.32 seconds)
Cbc0010I After 24600 nodes, 47 on tree, 1e+50 best solution, best possible 299 (1466.31 seconds)
Cbc0010I After 24700 nodes, 39 on tree, 1e+50 best solution, best possible 299 (1477.42 seconds)
Cbc0010I After 24800 nodes, 48 on tree, 1e+50 best solution, best possible 299 (1486.42 seconds)
Cbc0010I After 24900 nodes, 53 on tree, 1e+50 best solution, best possible 299 (1496.04 seconds)
Cbc0010I After 25000 nodes, 54 on tree, 1e+50 best solution, best possible 299 (1506.06 seconds)
Cbc0010I After 25100 nodes, 49 on tree, 1e+50 best solution, best possible 299 (1517.81 seconds)
Cbc0010I After 25200 nodes, 45 on tree, 1e+50 best solution, best possible 299 (1528.56 seconds)
Cbc0010I After 25300 nodes, 42 on tree, 1e+50 best solution, best possible 299 (1541.44 seconds)
Cbc0010I After 25400 nodes, 36 on tree, 1e+50 best solution, best possible 299 (1554.46 seconds)
Cbc0010I After 25500 nodes, 39 on tree, 1e+50 best solution, best possible 299 (1569.01 seconds)
Cbc0010I After 25600 nodes, 37 on tree, 1e+50 best solution, best possible 299 (1580.77 seconds)
Cbc0010I After 25700 nodes, 42 on tree, 1e+50 best solution, best possible 299 (1589.95 seconds)
Cbc0010I After 25800 nodes, 47 on tree, 1e+50 best solution, best possible 299 (1597.26 seconds)
Cbc0010I After 25900 nodes, 45 on tree, 1e+50 best solution, best possible 299 (1606.89 seconds)
Cbc0010I After 26000 nodes, 45 on tree, 1e+50 best solution, best possible 299 (1616.90 seconds)
Cbc0010I After 26100 nodes, 41 on tree, 1e+50 best solution, best possible 299 (1627.40 seconds)
Cbc0010I After 26200 nodes, 48 on tree, 1e+50 best solution, best possible 299 (1636.55 seconds)
Cbc0010I After 26300 nodes, 38 on tree, 1e+50 best solution, best possible 299 (1646.39 seconds)
Cbc0010I After 26400 nodes, 44 on tree, 1e+50 best solution, best possible 299 (1657.79 seconds)
Cbc0010I After 26500 nodes, 44 on tree, 1e+50 best solution, best possible 299 (1669.42 seconds)
Cbc0010I After 26600 nodes, 51 on tree, 1e+50 best solution, best possible 299 (1678.91 seconds)
Cbc0010I After 26700 nodes, 49 on tree, 1e+50 best solution, best possible 299 (1686.92 seconds)
Cbc0010I After 26800 nodes, 44 on tree, 1e+50 best solution, best possible 299 (1695.42 seconds)
Cbc0010I After 26900 nodes, 50 on tree, 1e+50 best solution, best possible 299 (1705.73 seconds)
Cbc0010I After 27000 nodes, 51 on tree, 1e+50 best solution, best possible 299 (1715.22 seconds)
Cbc0010I After 27100 nodes, 46 on tree, 1e+50 best solution, best possible 299 (1726.67 seconds)
Cbc0010I After 27200 nodes, 44 on tree, 1e+50 best solution, best possible 299 (1736.38 seconds)
Cbc0010I After 27300 nodes, 42 on tree, 1e+50 best solution, best possible 299 (1745.28 seconds)
Cbc0010I After 27400 nodes, 48 on tree, 1e+50 best solution, best possible 299 (1755.47 seconds)
Cbc0010I After 27500 nodes, 39 on tree, 1e+50 best solution, best possible 299 (1769.42 seconds)
Cbc0010I After 27600 nodes, 45 on tree, 1e+50 best solution, best possible 299 (1779.16 seconds)
Cbc0010I After 27700 nodes, 41 on tree, 1e+50 best solution, best possible 299 (1787.59 seconds)
Cbc0010I After 27800 nodes, 40 on tree, 1e+50 best solution, best possible 299 (1797.43 seconds)
Cbc0020I Exiting on maximum time
Cbc0005I Partial search - best objective 1e+50 (best possible 299), took 10012387 iterations and 27818 nodes (1800.37 seconds)
Cbc0032I Strong branching done 40138 times (2370870 iterations), fathomed 1476 nodes and fixed 7070 variables
Cbc0035I Maximum depth 97, 0 variables fixed on reduced cost
Cuts at root node changed objective from 253.106 to 275
Probing was tried 10 times and created 1 cuts of which 0 were active after adding rounds of cuts (0.051 seconds)
Gomory was tried 4857 times and created 14775 cuts of which 0 were active after adding rounds of cuts (12.715 seconds)
Knapsack was tried 10 times and created 0 cuts of which 0 were active after adding rounds of cuts (0.011 seconds)
Clique was tried 10 times and created 0 cuts of which 0 were active after adding rounds of cuts (0.009 seconds)
MixedIntegerRounding2 was tried 10 times and created 0 cuts of which 0 were active after adding rounds of cuts (0.012 seconds)
FlowCover was tried 10 times and created 0 cuts of which 0 were active after adding rounds of cuts (0.008 seconds)
TwoMirCuts was tried 4857 times and created 99441 cuts of which 0 were active after adding rounds of cuts (6.099 seconds)
ZeroHalf was tried 4857 times and created 8067 cuts of which 0 were active after adding rounds of cuts (57.842 seconds)
ImplicationCuts was tried 118 times and created 14 cuts of which 0 were active after adding rounds of cuts (0.006 seconds)

Result - Stopped on time limit

No feasible solution found
Lower bound:                    299.000
Enumerated nodes:               27818
Total iterations:               10012387
Time (CPU seconds):             1800.37
Time (Wallclock seconds):       1811.41

Total time (CPU seconds):       1800.38   (Wallclock seconds):       1811.43

